17 965
525 7 479 7 355 7 106 9 927 13
525 7 482 7 393 7 246 9 101 11 3 15 842 19 649 23
525 7 505 7 381 7 219 9 28 11 852 15 669 21
525 7 479 7 355 7 106 9 927 13
525 7 479 7 355 7 106 9 931 13
525 7 479 7 355 7 106 9 931 13
525 7 482 7 358 7 165 12
525 7 482 7 358 7 165 12
525 7 482 7 365 7 115 9 943 13
525 7 482 7 365 7 115 9 943 13
525 7 482 7 367 7 213 9 32 11 824 18
532 7
532 7
532 7
532 7
532 7
532 7
